(set-logic QF_S)
(declare-fun var_0xINPUT_201539 () String)
(assert (and (= (len var_0xINPUT_201539) 0) (= (len var_0xINPUT_201539) 0) (not (= var_0xINPUT_201539 "4PH2ujcENG"))))
(check-sat var_0xINPUT_201539)